GeneratedTests/Random_8/Random_8_10.tsp
NAME: Random_8_10
TYPE: TSP
DIMENSION: 8
EDGE_WEIGHT_TYPE: EUC_2D
NODE_COORD_SECTION
1 3.5549684 21.849371
2 3.7378435 1.7533007
3 15.727507 18.808895
4 12.480581 6.38139
5 7.0908237 11.506219
6 10.891399 8.605169
7 5.145448 16.698595
8 13.244923 16.917461
EOF
