GeneratedTests/Random_8/Random_8_10.txt
NAME: Random_8_10
TYPE: TSP
DIMENSION: 8
EDGE_WEIGHT_TYPE: EUC_2D
NODE_COORD_SECTION
1 12.934923 20.50705
2 1.7164235 4.190313
3 23.723598 7.465705
4 4.6829023 12.847157
5 6.4004545 0.984817
6 13.625608 2.084806
7 19.033613 4.4277635
8 3.0208168 3.0341892
EOF
